p cnf 555 1637
1 -2 51 0
-1 -2 -51 0
1 2 -51 0
-1 2 51 0
3 8 52 0
-3 8 -52 0
3 -8 -52 0
-3 -8 52 0
9 10 53 0
-9 10 -53 0
9 -10 -53 0
-9 -10 53 0
12 15 54 0
-12 15 -54 0
12 -15 -54 0
-12 -15 54 0
20 22 55 0
-20 22 -55 0
20 -22 -55 0
-20 -22 55 0
25 26 56 0
-25 26 -56 0
25 -26 -56 0
-25 -26 56 0
27 -28 57 0
-27 -28 -57 0
27 28 -57 0
-27 28 57 0
29 30 58 0
-29 30 -58 0
29 -30 -58 0
-29 -30 58 0
-31 32 59 0
31 32 -59 0
-31 -32 -59 0
31 -32 59 0
-33 39 60 0
33 39 -60 0
-33 -39 -60 0
33 -39 60 0
-42 -45 61 0
42 -45 -61 0
-42 45 -61 0
42 45 61 0
46 -48 62 0
-46 -48 -62 0
46 48 -62 0
-46 48 62 0
50 -51 63 0
-50 -51 -63 0
50 51 -63 0
-50 51 63 0
52 -53 64 0
-52 -53 -64 0
52 53 -64 0
-52 53 64 0
54 -55 65 0
-54 -55 -65 0
54 55 -65 0
-54 55 65 0
56 -57 66 0
-56 -57 -66 0
56 57 -66 0
-56 57 66 0
58 -59 67 0
-58 -59 -67 0
58 59 -67 0
-58 59 67 0
60 -61 68 0
-60 -61 -68 0
60 61 -68 0
-60 61 68 0
62 -63 69 0
-62 -63 -69 0
62 63 -69 0
-62 63 69 0
64 -65 70 0
-64 -65 -70 0
64 65 -70 0
-64 65 70 0
66 -67 71 0
-66 -67 -71 0
66 67 -71 0
-66 67 71 0
68 -69 72 0
-68 -69 -72 0
68 69 -72 0
-68 69 72 0
70 -71 73 0
-70 -71 -73 0
70 71 -73 0
-70 71 73 0
72 73 0
-72 -73 0
-2 3 74 0
2 3 -74 0
-2 -3 -74 0
2 -3 74 0
-6 -7 75 0
6 -7 -75 0
-6 7 -75 0
6 7 75 0
8 -9 76 0
-8 -9 -76 0
8 9 -76 0
-8 9 76 0
-12 -14 77 0
12 -14 -77 0
-12 14 -77 0
12 14 77 0
15 16 78 0
-15 16 -78 0
15 -16 -78 0
-15 -16 78 0
17 18 79 0
-17 18 -79 0
17 -18 -79 0
-17 -18 79 0
-20 21 80 0
20 21 -80 0
-20 -21 -80 0
20 -21 80 0
23 24 81 0
-23 24 -81 0
23 -24 -81 0
-23 -24 81 0
26 -28 82 0
-26 -28 -82 0
26 28 -82 0
-26 28 82 0
-29 -32 83 0
29 -32 -83 0
-29 32 -83 0
29 32 83 0
33 -34 84 0
-33 -34 -84 0
33 34 -84 0
-33 34 84 0
35 -37 85 0
-35 -37 -85 0
35 37 -85 0
-35 37 85 0
-38 -39 86 0
38 -39 -86 0
-38 39 -86 0
38 39 86 0
-41 43 87 0
41 43 -87 0
-41 -43 -87 0
41 -43 87 0
-44 -45 88 0
44 -45 -88 0
-44 45 -88 0
44 45 88 0
73 -74 89 0
-73 -74 -89 0
73 74 -89 0
-73 74 89 0
75 -76 90 0
-75 -76 -90 0
75 76 -90 0
-75 76 90 0
77 -78 91 0
-77 -78 -91 0
77 78 -91 0
-77 78 91 0
79 -80 92 0
-79 -80 -92 0
79 80 -92 0
-79 80 92 0
81 -82 93 0
-81 -82 -93 0
81 82 -93 0
-81 82 93 0
83 -84 94 0
-83 -84 -94 0
83 84 -94 0
-83 84 94 0
85 -86 95 0
-85 -86 -95 0
85 86 -95 0
-85 86 95 0
87 -88 96 0
-87 -88 -96 0
87 88 -96 0
-87 88 96 0
89 -90 97 0
-89 -90 -97 0
89 90 -97 0
-89 90 97 0
91 -92 98 0
-91 -92 -98 0
91 92 -98 0
-91 92 98 0
93 -94 99 0
-93 -94 -99 0
93 94 -99 0
-93 94 99 0
95 -96 100 0
-95 -96 -100 0
95 96 -100 0
-95 96 100 0
97 -98 101 0
-97 -98 -101 0
97 98 -101 0
-97 98 101 0
99 -100 102 0
-99 -100 -102 0
99 100 -102 0
-99 100 102 0
101 102 0
-101 -102 0
2 4 103 0
-2 4 -103 0
2 -4 -103 0
-2 -4 103 0
-5 -6 104 0
5 -6 -104 0
-5 6 -104 0
5 6 104 0
10 -11 105 0
-10 -11 -105 0
10 11 -105 0
-10 11 105 0
14 -15 106 0
-14 -15 -106 0
14 15 -106 0
-14 15 106 0
-17 -18 107 0
17 -18 -107 0
-17 18 -107 0
17 18 107 0
-21 -22 108 0
21 -22 -108 0
-21 22 -108 0
21 22 108 0
-23 26 109 0
23 26 -109 0
-23 -26 -109 0
23 -26 109 0
30 -31 110 0
-30 -31 -110 0
30 31 -110 0
-30 31 110 0
32 -33 111 0
-32 -33 -111 0
32 33 -111 0
-32 33 111 0
34 37 112 0
-34 37 -112 0
34 -37 -112 0
-34 -37 112 0
40 48 113 0
-40 48 -113 0
40 -48 -113 0
-40 -48 113 0
-49 -50 114 0
49 -50 -114 0
-49 50 -114 0
49 50 114 0
103 -104 115 0
-103 -104 -115 0
103 104 -115 0
-103 104 115 0
105 -106 116 0
-105 -106 -116 0
105 106 -116 0
-105 106 116 0
107 -108 117 0
-107 -108 -117 0
107 108 -117 0
-107 108 117 0
109 -110 118 0
-109 -110 -118 0
109 110 -118 0
-109 110 118 0
111 -112 119 0
-111 -112 -119 0
111 112 -119 0
-111 112 119 0
113 -114 120 0
-113 -114 -120 0
113 114 -120 0
-113 114 120 0
115 -116 121 0
-115 -116 -121 0
115 116 -121 0
-115 116 121 0
117 -118 122 0
-117 -118 -122 0
117 118 -122 0
-117 118 122 0
119 -120 123 0
-119 -120 -123 0
119 120 -123 0
-119 120 123 0
-121 -122 123 0
121 -122 -123 0
-121 122 -123 0
121 122 123 0
-2 3 124 0
2 3 -124 0
-2 -3 -124 0
2 -3 124 0
4 -5 125 0
-4 -5 -125 0
4 5 -125 0
-4 5 125 0
10 13 126 0
-10 13 -126 0
10 -13 -126 0
-10 -13 126 0
-15 19 127 0
15 19 -127 0
-15 -19 -127 0
15 -19 127 0
-20 22 128 0
20 22 -128 0
-20 -22 -128 0
20 -22 128 0
-23 24 129 0
23 24 -129 0
-23 -24 -129 0
23 -24 129 0
26 29 130 0
-26 29 -130 0
26 -29 -130 0
-26 -29 130 0
-32 35 131 0
32 35 -131 0
-32 -35 -131 0
32 -35 131 0
-36 37 132 0
36 37 -132 0
-36 -37 -132 0
36 -37 132 0
38 40 133 0
-38 40 -133 0
38 -40 -133 0
-38 -40 133 0
41 -42 134 0
-41 -42 -134 0
41 42 -134 0
-41 42 134 0
-44 -45 135 0
44 -45 -135 0
-44 45 -135 0
44 45 135 0
47 48 136 0
-47 48 -136 0
47 -48 -136 0
-47 -48 136 0
124 -125 137 0
-124 -125 -137 0
124 125 -137 0
-124 125 137 0
126 -127 138 0
-126 -127 -138 0
126 127 -138 0
-126 127 138 0
128 -129 139 0
-128 -129 -139 0
128 129 -139 0
-128 129 139 0
130 -131 140 0
-130 -131 -140 0
130 131 -140 0
-130 131 140 0
132 -133 141 0
-132 -133 -141 0
132 133 -141 0
-132 133 141 0
134 -135 142 0
-134 -135 -142 0
134 135 -142 0
-134 135 142 0
136 -137 143 0
-136 -137 -143 0
136 137 -143 0
-136 137 143 0
138 -139 144 0
-138 -139 -144 0
138 139 -144 0
-138 139 144 0
140 -141 145 0
-140 -141 -145 0
140 141 -145 0
-140 141 145 0
142 -143 146 0
-142 -143 -146 0
142 143 -146 0
-142 143 146 0
144 -145 147 0
-144 -145 -147 0
144 145 -147 0
-144 145 147 0
146 147 0
-146 -147 0
-1 2 148 0
1 2 -148 0
-1 -2 -148 0
1 -2 148 0
-7 -12 149 0
7 -12 -149 0
-7 12 -149 0
7 12 149 0
-14 15 150 0
14 15 -150 0
-14 -15 -150 0
14 -15 150 0
-16 19 151 0
16 19 -151 0
-16 -19 -151 0
16 -19 151 0
23 -25 152 0
-23 -25 -152 0
23 25 -152 0
-23 25 152 0
26 -27 153 0
-26 -27 -153 0
26 27 -153 0
-26 27 153 0
29 30 154 0
-29 30 -154 0
29 -30 -154 0
-29 -30 154 0
-33 34 155 0
33 34 -155 0
-33 -34 -155 0
33 -34 155 0
-37 39 156 0
37 39 -156 0
-37 -39 -156 0
37 -39 156 0
40 -41 157 0
-40 -41 -157 0
40 41 -157 0
-40 41 157 0
42 43 158 0
-42 43 -158 0
42 -43 -158 0
-42 -43 158 0
45 47 159 0
-45 47 -159 0
45 -47 -159 0
-45 -47 159 0
-48 49 160 0
48 49 -160 0
-48 -49 -160 0
48 -49 160 0
147 -148 161 0
-147 -148 -161 0
147 148 -161 0
-147 148 161 0
149 -150 162 0
-149 -150 -162 0
149 150 -162 0
-149 150 162 0
151 -152 163 0
-151 -152 -163 0
151 152 -163 0
-151 152 163 0
153 -154 164 0
-153 -154 -164 0
153 154 -164 0
-153 154 164 0
155 -156 165 0
-155 -156 -165 0
155 156 -165 0
-155 156 165 0
157 -158 166 0
-157 -158 -166 0
157 158 -166 0
-157 158 166 0
159 -160 167 0
-159 -160 -167 0
159 160 -167 0
-159 160 167 0
161 -162 168 0
-161 -162 -168 0
161 162 -168 0
-161 162 168 0
163 -164 169 0
-163 -164 -169 0
163 164 -169 0
-163 164 169 0
165 -166 170 0
-165 -166 -170 0
165 166 -170 0
-165 166 170 0
167 -168 171 0
-167 -168 -171 0
167 168 -171 0
-167 168 171 0
169 -170 172 0
-169 -170 -172 0
169 170 -172 0
-169 170 172 0
171 172 0
-171 -172 0
-2 6 173 0
2 6 -173 0
-2 -6 -173 0
2 -6 173 0
-7 -8 174 0
7 -8 -174 0
-7 8 -174 0
7 8 174 0
9 10 175 0
-9 10 -175 0
9 -10 -175 0
-9 -10 175 0
17 -19 176 0
-17 -19 -176 0
17 19 -176 0
-17 19 176 0
22 -27 177 0
-22 -27 -177 0
22 27 -177 0
-22 27 177 0
-29 -32 178 0
29 -32 -178 0
-29 32 -178 0
29 32 178 0
36 -37 179 0
-36 -37 -179 0
36 37 -179 0
-36 37 179 0
38 -40 180 0
-38 -40 -180 0
38 40 -180 0
-38 40 180 0
42 44 181 0
-42 44 -181 0
42 -44 -181 0
-42 -44 181 0
-45 -46 182 0
45 -46 -182 0
-45 46 -182 0
45 46 182 0
-48 50 183 0
48 50 -183 0
-48 -50 -183 0
48 -50 183 0
173 -174 184 0
-173 -174 -184 0
173 174 -184 0
-173 174 184 0
175 -176 185 0
-175 -176 -185 0
175 176 -185 0
-175 176 185 0
177 -178 186 0
-177 -178 -186 0
177 178 -186 0
-177 178 186 0
179 -180 187 0
-179 -180 -187 0
179 180 -187 0
-179 180 187 0
181 -182 188 0
-181 -182 -188 0
181 182 -188 0
-181 182 188 0
183 -184 189 0
-183 -184 -189 0
183 184 -189 0
-183 184 189 0
185 -186 190 0
-185 -186 -190 0
185 186 -190 0
-185 186 190 0
187 -188 191 0
-187 -188 -191 0
187 188 -191 0
-187 188 191 0
-189 -190 191 0
189 -190 -191 0
-189 190 -191 0
189 190 191 0
-2 4 192 0
2 4 -192 0
-2 -4 -192 0
2 -4 192 0
-5 -6 193 0
5 -6 -193 0
-5 6 -193 0
5 6 193 0
-7 8 194 0
7 8 -194 0
-7 -8 -194 0
7 -8 194 0
-9 -10 195 0
9 -10 -195 0
-9 10 -195 0
9 10 195 0
-11 12 196 0
11 12 -196 0
-11 -12 -196 0
11 -12 196 0
13 14 197 0
-13 14 -197 0
13 -14 -197 0
-13 -14 197 0
-18 -19 198 0
18 -19 -198 0
-18 19 -198 0
18 19 198 0
-20 21 199 0
20 21 -199 0
-20 -21 -199 0
20 -21 199 0
-22 23 200 0
22 23 -200 0
-22 -23 -200 0
22 -23 200 0
24 -25 201 0
-24 -25 -201 0
24 25 -201 0
-24 25 201 0
-26 27 202 0
26 27 -202 0
-26 -27 -202 0
26 -27 202 0
-28 29 203 0
28 29 -203 0
-28 -29 -203 0
28 -29 203 0
30 -34 204 0
-30 -34 -204 0
30 34 -204 0
-30 34 204 0
-37 -38 205 0
37 -38 -205 0
-37 38 -205 0
37 38 205 0
-41 43 206 0
41 43 -206 0
-41 -43 -206 0
41 -43 206 0
-44 -47 207 0
44 -47 -207 0
-44 47 -207 0
44 47 207 0
-48 -49 208 0
48 -49 -208 0
-48 49 -208 0
48 49 208 0
191 -192 209 0
-191 -192 -209 0
191 192 -209 0
-191 192 209 0
193 -194 210 0
-193 -194 -210 0
193 194 -210 0
-193 194 210 0
195 -196 211 0
-195 -196 -211 0
195 196 -211 0
-195 196 211 0
197 -198 212 0
-197 -198 -212 0
197 198 -212 0
-197 198 212 0
199 -200 213 0
-199 -200 -213 0
199 200 -213 0
-199 200 213 0
201 -202 214 0
-201 -202 -214 0
201 202 -214 0
-201 202 214 0
203 -204 215 0
-203 -204 -215 0
203 204 -215 0
-203 204 215 0
205 -206 216 0
-205 -206 -216 0
205 206 -216 0
-205 206 216 0
207 -208 217 0
-207 -208 -217 0
207 208 -217 0
-207 208 217 0
209 -210 218 0
-209 -210 -218 0
209 210 -218 0
-209 210 218 0
211 -212 219 0
-211 -212 -219 0
211 212 -219 0
-211 212 219 0
213 -214 220 0
-213 -214 -220 0
213 214 -220 0
-213 214 220 0
215 -216 221 0
-215 -216 -221 0
215 216 -221 0
-215 216 221 0
217 -218 222 0
-217 -218 -222 0
217 218 -222 0
-217 218 222 0
219 -220 223 0
-219 -220 -223 0
219 220 -223 0
-219 220 223 0
-221 -222 223 0
221 -222 -223 0
-221 222 -223 0
221 222 223 0
-1 2 224 0
1 2 -224 0
-1 -2 -224 0
1 -2 224 0
-5 -6 225 0
5 -6 -225 0
-5 6 -225 0
5 6 225 0
-8 -10 226 0
8 -10 -226 0
-8 10 -226 0
8 10 226 0
-11 12 227 0
11 12 -227 0
-11 -12 -227 0
11 -12 227 0
-15 17 228 0
15 17 -228 0
-15 -17 -228 0
15 -17 228 0
19 -20 229 0
-19 -20 -229 0
19 20 -229 0
-19 20 229 0
22 -25 230 0
-22 -25 -230 0
22 25 -230 0
-22 25 230 0
-27 -28 231 0
27 -28 -231 0
-27 28 -231 0
27 28 231 0
-29 -31 232 0
29 -31 -232 0
-29 31 -232 0
29 31 232 0
-32 -33 233 0
32 -33 -233 0
-32 33 -233 0
32 33 233 0
34 35 234 0
-34 35 -234 0
34 -35 -234 0
-34 -35 234 0
37 38 235 0
-37 38 -235 0
37 -38 -235 0
-37 -38 235 0
-41 -42 236 0
41 -42 -236 0
-41 42 -236 0
41 42 236 0
44 45 237 0
-44 45 -237 0
44 -45 -237 0
-44 -45 237 0
47 50 238 0
-47 50 -238 0
47 -50 -238 0
-47 -50 238 0
224 -225 239 0
-224 -225 -239 0
224 225 -239 0
-224 225 239 0
226 -227 240 0
-226 -227 -240 0
226 227 -240 0
-226 227 240 0
228 -229 241 0
-228 -229 -241 0
228 229 -241 0
-228 229 241 0
230 -231 242 0
-230 -231 -242 0
230 231 -242 0
-230 231 242 0
232 -233 243 0
-232 -233 -243 0
232 233 -243 0
-232 233 243 0
234 -235 244 0
-234 -235 -244 0
234 235 -244 0
-234 235 244 0
236 -237 245 0
-236 -237 -245 0
236 237 -245 0
-236 237 245 0
238 -239 246 0
-238 -239 -246 0
238 239 -246 0
-238 239 246 0
240 -241 247 0
-240 -241 -247 0
240 241 -247 0
-240 241 247 0
242 -243 248 0
-242 -243 -248 0
242 243 -248 0
-242 243 248 0
244 -245 249 0
-244 -245 -249 0
244 245 -249 0
-244 245 249 0
246 -247 250 0
-246 -247 -250 0
246 247 -250 0
-246 247 250 0
248 -249 251 0
-248 -249 -251 0
248 249 -251 0
-248 249 251 0
250 251 0
-250 -251 0
1 -3 252 0
-1 -3 -252 0
1 3 -252 0
-1 3 252 0
-4 -5 253 0
4 -5 -253 0
-4 5 -253 0
4 5 253 0
7 -8 254 0
-7 -8 -254 0
7 8 -254 0
-7 8 254 0
9 14 255 0
-9 14 -255 0
9 -14 -255 0
-9 -14 255 0
-15 16 256 0
15 16 -256 0
-15 -16 -256 0
15 -16 256 0
-17 -18 257 0
17 -18 -257 0
-17 18 -257 0
17 18 257 0
-21 -22 258 0
21 -22 -258 0
-21 22 -258 0
21 22 258 0
-24 -26 259 0
24 -26 -259 0
-24 26 -259 0
24 26 259 0
27 30 260 0
-27 30 -260 0
27 -30 -260 0
-27 -30 260 0
-33 34 261 0
33 34 -261 0
-33 -34 -261 0
33 -34 261 0
-36 -38 262 0
36 -38 -262 0
-36 38 -262 0
36 38 262 0
39 41 263 0
-39 41 -263 0
39 -41 -263 0
-39 -41 263 0
-43 46 264 0
43 46 -264 0
-43 -46 -264 0
43 -46 264 0
251 -252 265 0
-251 -252 -265 0
251 252 -265 0
-251 252 265 0
253 -254 266 0
-253 -254 -266 0
253 254 -266 0
-253 254 266 0
255 -256 267 0
-255 -256 -267 0
255 256 -267 0
-255 256 267 0
257 -258 268 0
-257 -258 -268 0
257 258 -268 0
-257 258 268 0
259 -260 269 0
-259 -260 -269 0
259 260 -269 0
-259 260 269 0
261 -262 270 0
-261 -262 -270 0
261 262 -270 0
-261 262 270 0
263 -264 271 0
-263 -264 -271 0
263 264 -271 0
-263 264 271 0
265 -266 272 0
-265 -266 -272 0
265 266 -272 0
-265 266 272 0
267 -268 273 0
-267 -268 -273 0
267 268 -273 0
-267 268 273 0
269 -270 274 0
-269 -270 -274 0
269 270 -274 0
-269 270 274 0
271 -272 275 0
-271 -272 -275 0
271 272 -275 0
-271 272 275 0
273 -274 276 0
-273 -274 -276 0
273 274 -276 0
-273 274 276 0
275 276 0
-275 -276 0
-1 3 277 0
1 3 -277 0
-1 -3 -277 0
1 -3 277 0
4 -7 278 0
-4 -7 -278 0
4 7 -278 0
-4 7 278 0
-13 16 279 0
13 16 -279 0
-13 -16 -279 0
13 -16 279 0
-17 -18 280 0
17 -18 -280 0
-17 18 -280 0
17 18 280 0
19 -24 281 0
-19 -24 -281 0
19 24 -281 0
-19 24 281 0
25 28 282 0
-25 28 -282 0
25 -28 -282 0
-25 -28 282 0
29 30 283 0
-29 30 -283 0
29 -30 -283 0
-29 -30 283 0
31 36 284 0
-31 36 -284 0
31 -36 -284 0
-31 -36 284 0
40 -42 285 0
-40 -42 -285 0
40 42 -285 0
-40 42 285 0
-43 45 286 0
43 45 -286 0
-43 -45 -286 0
43 -45 286 0
46 47 287 0
-46 47 -287 0
46 -47 -287 0
-46 -47 287 0
-49 -50 288 0
49 -50 -288 0
-49 50 -288 0
49 50 288 0
277 -278 289 0
-277 -278 -289 0
277 278 -289 0
-277 278 289 0
279 -280 290 0
-279 -280 -290 0
279 280 -290 0
-279 280 290 0
281 -282 291 0
-281 -282 -291 0
281 282 -291 0
-281 282 291 0
283 -284 292 0
-283 -284 -292 0
283 284 -292 0
-283 284 292 0
285 -286 293 0
-285 -286 -293 0
285 286 -293 0
-285 286 293 0
287 -288 294 0
-287 -288 -294 0
287 288 -294 0
-287 288 294 0
289 -290 295 0
-289 -290 -295 0
289 290 -295 0
-289 290 295 0
291 -292 296 0
-291 -292 -296 0
291 292 -296 0
-291 292 296 0
293 -294 297 0
-293 -294 -297 0
293 294 -297 0
-293 294 297 0
-295 -296 297 0
295 -296 -297 0
-295 296 -297 0
295 296 297 0
-12 298 0
-24 298 0
-12 -24 299 0
-23 298 0
-12 -23 299 0
-24 -23 299 0
-12 -24 -23 300 0
-22 301 0
-21 301 0
-22 -21 302 0
-20 301 0
-22 -20 302 0
-21 -20 302 0
-22 -21 -20 303 0
-298 304 0
-299 305 0
-300 306 0
-301 304 0
-302 305 0
-303 306 0
-298 -301 305 0
-298 -302 306 0
-298 -303 307 0
-299 -301 306 0
-299 -302 307 0
-299 -303 308 0
-300 -301 307 0
-300 -302 308 0
-300 -303 309 0
-19 310 0
-18 310 0
-19 -18 311 0
-17 310 0
-19 -17 311 0
-18 -17 311 0
-19 -18 -17 312 0
-16 313 0
-15 313 0
-16 -15 314 0
-14 313 0
-16 -14 314 0
-15 -14 314 0
-16 -15 -14 315 0
-310 316 0
-311 317 0
-312 318 0
-313 316 0
-314 317 0
-315 318 0
-310 -313 317 0
-310 -314 318 0
-310 -315 319 0
-311 -313 318 0
-311 -314 319 0
-311 -315 320 0
-312 -313 319 0
-312 -314 320 0
-312 -315 321 0
-13 322 0
-25 322 0
-13 -25 323 0
-11 322 0
-13 -11 323 0
-25 -11 323 0
-13 -25 -11 324 0
-10 325 0
-9 325 0
-10 -9 326 0
-8 325 0
-10 -8 326 0
-9 -8 326 0
-10 -9 -8 327 0
-322 328 0
-323 329 0
-324 330 0
-325 328 0
-326 329 0
-327 330 0
-322 -325 329 0
-322 -326 330 0
-322 -327 331 0
-323 -325 330 0
-323 -326 331 0
-323 -327 332 0
-324 -325 331 0
-324 -326 332 0
-324 -327 333 0
-7 334 0
-6 334 0
-7 -6 335 0
-5 334 0
-7 -5 335 0
-6 -5 335 0
-7 -6 -5 336 0
-4 337 0
-3 337 0
-4 -3 338 0
-2 339 0
-1 339 0
-2 -1 340 0
-37 339 0
-2 -37 340 0
-1 -37 340 0
-2 -1 -37 341 0
-337 342 0
-338 343 0
-339 342 0
-340 343 0
-341 344 0
-337 -339 343 0
-337 -340 344 0
-337 -341 345 0
-338 -339 344 0
-338 -340 345 0
-338 -341 346 0
-334 347 0
-335 348 0
-336 349 0
-342 347 0
-343 348 0
-344 349 0
-345 350 0
-346 351 0
-334 -342 348 0
-334 -343 349 0
-334 -344 350 0
-334 -345 351 0
-334 -346 352 0
-335 -342 349 0
-335 -343 350 0
-335 -344 351 0
-335 -345 352 0
-335 -346 353 0
-336 -342 350 0
-336 -343 351 0
-336 -344 352 0
-336 -345 353 0
-336 -346 354 0
-49 355 0
-48 355 0
-49 -48 356 0
-47 355 0
-49 -47 356 0
-48 -47 356 0
-49 -48 -47 357 0
-46 358 0
-45 358 0
-46 -45 359 0
-44 360 0
-43 360 0
-44 -43 361 0
-42 360 0
-44 -42 361 0
-43 -42 361 0
-44 -43 -42 362 0
-358 363 0
-359 364 0
-360 363 0
-361 364 0
-362 365 0
-358 -360 364 0
-358 -361 365 0
-358 -362 366 0
-359 -360 365 0
-359 -361 366 0
-359 -362 367 0
-355 368 0
-356 369 0
-357 370 0
-363 368 0
-364 369 0
-365 370 0
-366 371 0
-367 372 0
-355 -363 369 0
-355 -364 370 0
-355 -365 371 0
-355 -366 372 0
-355 -367 373 0
-356 -363 370 0
-356 -364 371 0
-356 -365 372 0
-356 -366 373 0
-356 -367 374 0
-357 -363 371 0
-357 -364 372 0
-357 -365 373 0
-357 -366 374 0
-357 -367 375 0
-41 376 0
-40 376 0
-41 -40 377 0
-39 376 0
-41 -39 377 0
-40 -39 377 0
-41 -40 -39 378 0
-38 379 0
-50 379 0
-38 -50 380 0
-36 381 0
-35 381 0
-36 -35 382 0
-34 381 0
-36 -34 382 0
-35 -34 382 0
-36 -35 -34 383 0
-379 384 0
-380 385 0
-381 384 0
-382 385 0
-383 386 0
-379 -381 385 0
-379 -382 386 0
-379 -383 387 0
-380 -381 386 0
-380 -382 387 0
-380 -383 388 0
-376 389 0
-377 390 0
-378 391 0
-384 389 0
-385 390 0
-386 391 0
-387 392 0
-388 393 0
-376 -384 390 0
-376 -385 391 0
-376 -386 392 0
-376 -387 393 0
-376 -388 394 0
-377 -384 391 0
-377 -385 392 0
-377 -386 393 0
-377 -387 394 0
-377 -388 395 0
-378 -384 392 0
-378 -385 393 0
-378 -386 394 0
-378 -387 395 0
-378 -388 396 0
-33 397 0
-32 397 0
-33 -32 398 0
-31 397 0
-33 -31 398 0
-32 -31 398 0
-33 -32 -31 399 0
-30 400 0
-29 400 0
-30 -29 401 0
-28 402 0
-27 402 0
-28 -27 403 0
-26 402 0
-28 -26 403 0
-27 -26 403 0
-28 -27 -26 404 0
-400 405 0
-401 406 0
-402 405 0
-403 406 0
-404 407 0
-400 -402 406 0
-400 -403 407 0
-400 -404 408 0
-401 -402 407 0
-401 -403 408 0
-401 -404 409 0
-397 410 0
-398 411 0
-399 412 0
-405 410 0
-406 411 0
-407 412 0
-408 413 0
-409 414 0
-397 -405 411 0
-397 -406 412 0
-397 -407 413 0
-397 -408 414 0
-397 -409 415 0
-398 -405 412 0
-398 -406 413 0
-398 -407 414 0
-398 -408 415 0
-398 -409 416 0
-399 -405 413 0
-399 -406 414 0
-399 -407 415 0
-399 -408 416 0
-399 -409 417 0
-389 418 0
-391 419 0
-393 420 0
-395 421 0
-410 418 0
-412 419 0
-414 420 0
-416 421 0
-389 -410 419 0
-389 -412 420 0
-389 -414 421 0
-389 -416 422 0
-391 -410 420 0
-391 -412 421 0
-391 -414 422 0
-391 -416 423 0
-393 -410 421 0
-393 -412 422 0
-393 -414 423 0
-395 -410 422 0
-395 -412 423 0
-390 424 0
-394 425 0
-411 424 0
-415 425 0
-390 -411 425 0
-390 -415 426 0
-394 -411 426 0
-392 427 0
-396 428 0
-413 427 0
-417 428 0
-392 -413 428 0
-425 429 0
-427 429 0
-425 -427 430 0
-426 431 0
-428 431 0
-426 -428 432 0
-419 433 0
-424 433 0
-419 -424 434 0
-420 435 0
-429 435 0
-420 -429 436 0
-421 437 0
-430 437 0
-421 -430 438 0
-422 439 0
-431 439 0
-422 -431 440 0
-423 441 0
-432 441 0
-423 -432 442 0
-368 443 0
-370 444 0
-372 445 0
-374 446 0
-418 443 0
-434 444 0
-436 445 0
-438 446 0
-440 447 0
-442 448 0
-368 -418 444 0
-368 -434 445 0
-368 -436 446 0
-368 -438 447 0
-368 -440 448 0
-370 -418 445 0
-370 -434 446 0
-370 -436 447 0
-370 -438 448 0
-372 -418 446 0
-372 -434 447 0
-372 -436 448 0
-374 -418 447 0
-374 -434 448 0
-369 449 0
-373 450 0
-433 449 0
-437 450 0
-441 451 0
-369 -433 450 0
-369 -437 451 0
-373 -433 451 0
-371 452 0
-375 453 0
-435 452 0
-439 453 0
-371 -435 453 0
-450 454 0
-452 454 0
-450 -452 455 0
-451 456 0
-453 456 0
-451 -453 457 0
-444 458 0
-449 458 0
-444 -449 459 0
-445 460 0
-454 460 0
-445 -454 461 0
-446 462 0
-455 462 0
-446 -455 463 0
-447 464 0
-456 464 0
-447 -456 465 0
-448 466 0
-457 466 0
-448 -457 467 0
-347 468 0
-349 469 0
-351 470 0
-353 471 0
-443 468 0
-459 469 0
-461 470 0
-463 471 0
-465 472 0
-467 473 0
-347 -443 469 0
-347 -459 470 0
-347 -461 471 0
-347 -463 472 0
-347 -465 473 0
-349 -443 470 0
-349 -459 471 0
-349 -461 472 0
-349 -463 473 0
-351 -443 471 0
-351 -459 472 0
-351 -461 473 0
-353 -443 472 0
-353 -459 473 0
-348 474 0
-352 475 0
-458 474 0
-462 475 0
-466 476 0
-348 -458 475 0
-348 -462 476 0
-352 -458 476 0
-350 477 0
-354 478 0
-460 477 0
-464 478 0
-350 -460 478 0
-475 479 0
-477 479 0
-475 -477 480 0
-476 481 0
-478 481 0
-476 -478 482 0
-469 483 0
-474 483 0
-469 -474 484 0
-470 485 0
-479 485 0
-470 -479 486 0
-471 487 0
-480 487 0
-471 -480 488 0
-472 489 0
-481 489 0
-472 -481 490 0
-473 491 0
-482 491 0
-473 -482 492 0
-328 493 0
-330 494 0
-332 495 0
-468 493 0
-484 494 0
-486 495 0
-488 496 0
-490 497 0
-492 498 0
-328 -468 494 0
-328 -484 495 0
-328 -486 496 0
-328 -488 497 0
-328 -490 498 0
-330 -468 495 0
-330 -484 496 0
-330 -486 497 0
-330 -488 498 0
-332 -468 496 0
-332 -484 497 0
-332 -486 498 0
-329 499 0
-331 500 0
-333 501 0
-483 499 0
-485 500 0
-487 501 0
-489 502 0
-491 503 0
-329 -483 500 0
-329 -485 501 0
-329 -487 502 0
-329 -489 503 0
-331 -483 501 0
-331 -485 502 0
-331 -487 503 0
-333 -483 502 0
-333 -485 503 0
-494 504 0
-499 504 0
-494 -499 505 0
-495 506 0
-500 506 0
-495 -500 507 0
-496 508 0
-501 508 0
-496 -501 509 0
-497 510 0
-502 510 0
-497 -502 511 0
-498 512 0
-503 512 0
-498 -503 513 0
-316 514 0
-318 515 0
-320 516 0
-493 514 0
-505 515 0
-507 516 0
-509 517 0
-511 518 0
-513 519 0
-316 -493 515 0
-316 -505 516 0
-316 -507 517 0
-316 -509 518 0
-316 -511 519 0
-318 -493 516 0
-318 -505 517 0
-318 -507 518 0
-318 -509 519 0
-320 -493 517 0
-320 -505 518 0
-320 -507 519 0
-317 520 0
-319 521 0
-321 522 0
-504 520 0
-506 521 0
-508 522 0
-510 523 0
-512 524 0
-317 -504 521 0
-317 -506 522 0
-317 -508 523 0
-317 -510 524 0
-319 -504 522 0
-319 -506 523 0
-319 -508 524 0
-321 -504 523 0
-321 -506 524 0
-515 525 0
-520 525 0
-515 -520 526 0
-516 527 0
-521 527 0
-516 -521 528 0
-517 529 0
-522 529 0
-517 -522 530 0
-518 531 0
-523 531 0
-518 -523 532 0
-519 533 0
-524 533 0
-519 -524 534 0
-304 535 0
-306 536 0
-308 537 0
-514 535 0
-526 536 0
-528 537 0
-530 538 0
-532 539 0
-534 540 0
-304 -514 536 0
-304 -526 537 0
-304 -528 538 0
-304 -530 539 0
-304 -532 540 0
-306 -514 537 0
-306 -526 538 0
-306 -528 539 0
-306 -530 540 0
-308 -514 538 0
-308 -526 539 0
-308 -528 540 0
-305 541 0
-307 542 0
-309 543 0
-525 541 0
-527 542 0
-529 543 0
-531 544 0
-533 545 0
-305 -525 542 0
-305 -527 543 0
-305 -529 544 0
-305 -531 545 0
-307 -525 543 0
-307 -527 544 0
-307 -529 545 0
-309 -525 544 0
-309 -527 545 0
-536 546 0
-541 546 0
-536 -541 547 0
-537 548 0
-542 548 0
-537 -542 549 0
-538 550 0
-543 550 0
-538 -543 551 0
-539 552 0
-544 552 0
-539 -544 553 0
-540 554 0
-545 554 0
-540 -545 555 0
-555 0
